n = 35;
k = 2;
roles = [
{g, d},
{f, g},
{d, m},
{g, f},
{m, d},
{d, f},
{m, g},
{m, g},
{g, m},
{f, d},
{g, d},
{m, d},
{f, g},
{f, g},
{m, g},
{f, m},
{f, g},
{d, g},
{m, d},
{g, m},
{f, m},
{f, m},
{f, m},
{f, d},
{f, m},
{d, m},
{f, m},
{g, m},
{d, m},
{g, d},
{d, m},
{m, f},
{d, g},
{d, f},
{m, f}
];
num_pairs = 2;
player1 = [19, 30];
player2 = [8, 6];
